176
150
168
478
483
71
217
94
313
259
309
428
116
195
244
251
128
267
382
88
315
123
495
187
334
459
421
472
475
361
386
500
345
77
41
301
469
326
80
458
442
255
223
407
374
193
264
411
446
292
126
451
411
160
252
171
267
499
253
367
211
11
37
231
419
146
494
187
166
250
120
492
338
251
371
64
202
234
181
251
210
34
159
370
172
61
292
200
132
448
436
63
237
141
434
102
478
380
316
287
303
279
479
20
369
82
166
121
404
42
88
303
151
414
92
251
88
39
160
128
331
259
357
424
5
292
345
325
442
203
138
35
65
168
298
225
47
252
167
387
44
51
268
263
377
359
382
15
305
89
396
434
414
487
213
94
84
330
373
239
72
440
46
70
127
421
17
81
153
398
280
39
35
20
75
346
32
393
